NAME : XML100_1323_20
DIMENSION : 101
NB_CLUSTERS : 5
CLUSTERING_ALG : KMeans
CLUSTERING_PARAMS : k(4)
CLUSTERS
1 0
2 1 7 12 13 21 22 23 25 27 29 30 39 45 46 47 54 56 58 59 60 61 62 63 64 67 68 70 73 74 75 76 79 83 84 86 95 100
3 4 6 9 11 14 15 18 19 32 33 35 36 37 38 43 49 50 51 57 65 69 72 77 78 81 85 88 91 94 96 97 98
4 8 16 20 24 31 34 40 41 42 44 48 52 66 87 92
5 2 3 5 10 17 26 28 53 55 71 80 82 89 90 93 99
EOF